2 20
632 351 
0 84 70 61 88 13 9 2
1 81 78 97 21 62 74 1
2 34 60 43 31 87 70 2
3 66 89 43 44 32 42 1
4 92 34 60 85 82 67 2
5 35 68 44 22 48 15 1
6 100 43 56 70 67 6 2
7 22 82 54 20 80 18 1
8 97 59 49 26 94 30 1
9 5 68 65 15 51 90 2
10 57 66 42 12 1 70 1
11 13 33 86 44 13 42 1
12 21 58 82 1 36 51 1
13 8 66 49 5 21 8 2
14 45 83 18 17 24 26 2
15 66 27 19 49 51 84 1
16 52 51 5 38 10 55 2
17 72 50 9 45 21 92 2
18 53 79 97 2 27 15 2
19 24 100 12 67 71 48 1
